TCS_Benchmarks/redos_fix/snort1_output_distinct_268_267_32_0.txt
([^\n\r]*)(\d+)
([^\n\r]*)([iI][mM]\s+[oO][nN][lL][iI][nN][eE]\s+)(\d+)